=obj=                -10000
pse_X_0_x            5
pse_X_0_y            45
pse_X_0_z            5
pse_X_1_x            0
pse_X_1_y            0
pse_X_1_z            0
pse_X_2_x            5
pse_X_2_y            65
pse_X_2_z            5
C9                   5
C10                  95
C11                  5
C12                  5
C13                  85
C14                  5
C15                  5
C16                  25
C17                  5
C18                  5
C19                  15
C20                  5
C21                  5
C22                  5
C23                  5
C24                  5
C25                  55
C26                  5
C27                  5
C28                  35
C29                  5
C30                  5
C31                  75
C32                  5
C33                  0
C34                  0
C35                  0
C36                  0
C37                  0
C38                  0
C39                  0
C40                  0
C41                  0
C42                  0
C43                  0
C44                  0
C45                  0
C46                  0
C47                  0
C48                  0
C49                  0
C50                  0
C51                  0
C52                  0
C53                  0
C54                  0
C55                  0
C56                  0
C57                  0
C58                  0
C59                  0
C60                  0
C61                  0
C62                  0
C63                  0
C64                  0
C65                  0
C66                  0
C67                  0
C68                  0
C69                  0
C70                  0
C71                  0
C72                  0
C73                  0
C74                  0
C75                  0
C76                  0
C77                  0
C78                  0
C79                  0
C80                  0
C81                  0
C82                  0
C83                  0
C84                  0
C85                  0
C86                  0
C87                  0
C88                  0
C89                  0
C90                  0
C91                  0
C92                  0
C93                  0
C94                  0
C95                  0
C96                  0
C97                  0
C98                  0
delta_0_0_0          0
delta_0_0_1          0
delta_0_0_2          1
delta_0_1_0          0
delta_0_1_1          1
delta_0_1_2          0
delta_0_2_0          1
delta_0_2_1          0
delta_0_2_2          0
delta_1_0_0          0
delta_1_0_1          0
delta_1_0_2          0
delta_1_1_0          0
delta_1_1_1          0
delta_1_1_2          0
delta_1_2_0          0
delta_1_2_1          0
delta_1_2_2          0
delta_2_0_0          0
delta_2_0_1          0
delta_2_0_2          1
delta_2_1_0          0
delta_2_1_1          1
delta_2_1_2          0
delta_2_2_0          1
delta_2_2_1          0
delta_2_2_2          0
delta_3_0_0          0
delta_3_0_1          0
delta_3_0_2          1
delta_3_1_0          0
delta_3_1_1          1
delta_3_1_2          0
delta_3_2_0          1
delta_3_2_1          0
delta_3_2_2          0
delta_4_0_0          0
delta_4_0_1          0
delta_4_0_2          1
delta_4_1_0          0
delta_4_1_1          1
delta_4_1_2          0
delta_4_2_0          1
delta_4_2_1          0
delta_4_2_2          0
delta_5_0_0          0
delta_5_0_1          0
delta_5_0_2          1
delta_5_1_0          0
delta_5_1_1          1
delta_5_1_2          0
delta_5_2_0          1
delta_5_2_1          0
delta_5_2_2          0
delta_6_0_0          0
delta_6_0_1          0
delta_6_0_2          1
delta_6_1_0          0
delta_6_1_1          1
delta_6_1_2          0
delta_6_2_0          1
delta_6_2_1          0
delta_6_2_2          0
delta_7_0_0          0
delta_7_0_1          0
delta_7_0_2          1
delta_7_1_0          0
delta_7_1_1          1
delta_7_1_2          0
delta_7_2_0          1
delta_7_2_1          0
delta_7_2_2          0
delta_8_0_0          0
delta_8_0_1          0
delta_8_0_2          1
delta_8_1_0          0
delta_8_1_1          1
delta_8_1_2          0
delta_8_2_0          1
delta_8_2_1          0
delta_8_2_2          0
delta_9_0_0          0
delta_9_0_1          0
delta_9_0_2          1
delta_9_1_0          0
delta_9_1_1          1
delta_9_1_2          0
delta_9_2_0          1
delta_9_2_1          0
delta_9_2_2          0
delta_10_0_0         0
delta_10_0_1         0
delta_10_0_2         1
delta_10_1_0         0
delta_10_1_1         1
delta_10_1_2         0
delta_10_2_0         1
delta_10_2_1         0
delta_10_2_2         0
lambda_0_0_0         0
lambda_0_0_1         0
lambda_0_0_2         0
lambda_0_1_0         0
lambda_0_1_1         0
lambda_0_1_2         0
lambda_0_2_0         0
lambda_0_2_1         0
lambda_0_2_2         0
lambda_0_3_0         0
lambda_0_3_1         0
lambda_0_3_2         0
lambda_0_4_0         0
lambda_0_4_1         0
lambda_0_4_2         0
lambda_0_5_0         0
lambda_0_5_1         1
lambda_0_5_2         0
lambda_0_6_0         0
lambda_0_6_1         1
lambda_0_6_2         0
lambda_0_7_0         0
lambda_0_7_1         1
lambda_0_7_2         0
lambda_0_8_0         0
lambda_0_8_1         0
lambda_0_8_2         0
lambda_0_9_0         0
lambda_0_9_1         1
lambda_0_9_2         0
lambda_0_10_0        0
lambda_0_10_1        0
lambda_0_10_2        0
lambda_1_0_0         0
lambda_1_0_1         0
lambda_1_0_2         0
lambda_1_1_0         0
lambda_1_1_1         0
lambda_1_1_2         0
lambda_1_2_0         0
lambda_1_2_1         0
lambda_1_2_2         0
lambda_1_3_0         0
lambda_1_3_1         0
lambda_1_3_2         0
lambda_1_4_0         0
lambda_1_4_1         0
lambda_1_4_2         0
lambda_1_5_0         0
lambda_1_5_1         0
lambda_1_5_2         0
lambda_1_6_0         0
lambda_1_6_1         0
lambda_1_6_2         0
lambda_1_7_0         0
lambda_1_7_1         0
lambda_1_7_2         0
lambda_1_8_0         0
lambda_1_8_1         0
lambda_1_8_2         0
lambda_1_9_0         0
lambda_1_9_1         0
lambda_1_9_2         0
lambda_1_10_0        0
lambda_1_10_1        0
lambda_1_10_2        0
lambda_2_0_0         0
lambda_2_0_1         1
lambda_2_0_2         0
lambda_2_1_0         0
lambda_2_1_1         0
lambda_2_1_2         0
lambda_2_2_0         0
lambda_2_2_1         0
lambda_2_2_2         0
lambda_2_3_0         0
lambda_2_3_1         0
lambda_2_3_2         0
lambda_2_4_0         0
lambda_2_4_1         0
lambda_2_4_2         0
lambda_2_5_0         0
lambda_2_5_1         1
lambda_2_5_2         0
lambda_2_6_0         0
lambda_2_6_1         1
lambda_2_6_2         0
lambda_2_7_0         0
lambda_2_7_1         1
lambda_2_7_2         0
lambda_2_8_0         0
lambda_2_8_1         1
lambda_2_8_2         0
lambda_2_9_0         0
lambda_2_9_1         1
lambda_2_9_2         0
lambda_2_10_0        0
lambda_2_10_1        0
lambda_2_10_2        0
lambda_3_0_0         0
lambda_3_0_1         1
lambda_3_0_2         0
lambda_3_1_0         0
lambda_3_1_1         0
lambda_3_1_2         0
lambda_3_2_0         0
lambda_3_2_1         1
lambda_3_2_2         0
lambda_3_3_0         0
lambda_3_3_1         0
lambda_3_3_2         0
lambda_3_4_0         0
lambda_3_4_1         1
lambda_3_4_2         0
lambda_3_5_0         0
lambda_3_5_1         1
lambda_3_5_2         0
lambda_3_6_0         0
lambda_3_6_1         1
lambda_3_6_2         0
lambda_3_7_0         0
lambda_3_7_1         1
lambda_3_7_2         0
lambda_3_8_0         0
lambda_3_8_1         1
lambda_3_8_2         0
lambda_3_9_0         0
lambda_3_9_1         1
lambda_3_9_2         0
lambda_3_10_0        0
lambda_3_10_1        1
lambda_3_10_2        0
lambda_4_0_0         0
lambda_4_0_1         1
lambda_4_0_2         0
lambda_4_1_0         0
lambda_4_1_1         0
lambda_4_1_2         0
lambda_4_2_0         0
lambda_4_2_1         1
lambda_4_2_2         0
lambda_4_3_0         0
lambda_4_3_1         0
lambda_4_3_2         0
lambda_4_4_0         0
lambda_4_4_1         0
lambda_4_4_2         0
lambda_4_5_0         0
lambda_4_5_1         1
lambda_4_5_2         0
lambda_4_6_0         0
lambda_4_6_1         1
lambda_4_6_2         0
lambda_4_7_0         0
lambda_4_7_1         1
lambda_4_7_2         0
lambda_4_8_0         0
lambda_4_8_1         1
lambda_4_8_2         0
lambda_4_9_0         0
lambda_4_9_1         1
lambda_4_9_2         0
lambda_4_10_0        0
lambda_4_10_1        1
lambda_4_10_2        0
lambda_5_0_0         0
lambda_5_0_1         0
lambda_5_0_2         0
lambda_5_1_0         0
lambda_5_1_1         0
lambda_5_1_2         0
lambda_5_2_0         0
lambda_5_2_1         0
lambda_5_2_2         0
lambda_5_3_0         0
lambda_5_3_1         0
lambda_5_3_2         0
lambda_5_4_0         0
lambda_5_4_1         0
lambda_5_4_2         0
lambda_5_5_0         0
lambda_5_5_1         0
lambda_5_5_2         0
lambda_5_6_0         0
lambda_5_6_1         1
lambda_5_6_2         0
lambda_5_7_0         0
lambda_5_7_1         1
lambda_5_7_2         0
lambda_5_8_0         0
lambda_5_8_1         0
lambda_5_8_2         0
lambda_5_9_0         0
lambda_5_9_1         0
lambda_5_9_2         0
lambda_5_10_0        0
lambda_5_10_1        0
lambda_5_10_2        0
lambda_6_0_0         0
lambda_6_0_1         0
lambda_6_0_2         0
lambda_6_1_0         0
lambda_6_1_1         0
lambda_6_1_2         0
lambda_6_2_0         0
lambda_6_2_1         0
lambda_6_2_2         0
lambda_6_3_0         0
lambda_6_3_1         0
lambda_6_3_2         0
lambda_6_4_0         0
lambda_6_4_1         0
lambda_6_4_2         0
lambda_6_5_0         0
lambda_6_5_1         0
lambda_6_5_2         0
lambda_6_6_0         0
lambda_6_6_1         0
lambda_6_6_2         0
lambda_6_7_0         0
lambda_6_7_1         1
lambda_6_7_2         0
lambda_6_8_0         0
lambda_6_8_1         0
lambda_6_8_2         0
lambda_6_9_0         0
lambda_6_9_1         0
lambda_6_9_2         0
lambda_6_10_0        0
lambda_6_10_1        0
lambda_6_10_2        0
lambda_7_0_0         0
lambda_7_0_1         0
lambda_7_0_2         0
lambda_7_1_0         0
lambda_7_1_1         0
lambda_7_1_2         0
lambda_7_2_0         0
lambda_7_2_1         0
lambda_7_2_2         0
lambda_7_3_0         0
lambda_7_3_1         0
lambda_7_3_2         0
lambda_7_4_0         0
lambda_7_4_1         0
lambda_7_4_2         0
lambda_7_5_0         0
lambda_7_5_1         0
lambda_7_5_2         0
lambda_7_6_0         0
lambda_7_6_1         0
lambda_7_6_2         0
lambda_7_7_0         0
lambda_7_7_1         0
lambda_7_7_2         0
lambda_7_8_0         0
lambda_7_8_1         0
lambda_7_8_2         0
lambda_7_9_0         0
lambda_7_9_1         0
lambda_7_9_2         0
lambda_7_10_0        0
lambda_7_10_1        0
lambda_7_10_2        0
lambda_8_0_0         0
lambda_8_0_1         1
lambda_8_0_2         0
lambda_8_1_0         0
lambda_8_1_1         0
lambda_8_1_2         0
lambda_8_2_0         0
lambda_8_2_1         0
lambda_8_2_2         0
lambda_8_3_0         0
lambda_8_3_1         0
lambda_8_3_2         0
lambda_8_4_0         0
lambda_8_4_1         0
lambda_8_4_2         0
lambda_8_5_0         0
lambda_8_5_1         1
lambda_8_5_2         0
lambda_8_6_0         0
lambda_8_6_1         1
lambda_8_6_2         0
lambda_8_7_0         0
lambda_8_7_1         1
lambda_8_7_2         0
lambda_8_8_0         0
lambda_8_8_1         0
lambda_8_8_2         0
lambda_8_9_0         0
lambda_8_9_1         1
lambda_8_9_2         0
lambda_8_10_0        0
lambda_8_10_1        0
lambda_8_10_2        0
lambda_9_0_0         0
lambda_9_0_1         0
lambda_9_0_2         0
lambda_9_1_0         0
lambda_9_1_1         0
lambda_9_1_2         0
lambda_9_2_0         0
lambda_9_2_1         0
lambda_9_2_2         0
lambda_9_3_0         0
lambda_9_3_1         0
lambda_9_3_2         0
lambda_9_4_0         0
lambda_9_4_1         0
lambda_9_4_2         0
lambda_9_5_0         0
lambda_9_5_1         1
lambda_9_5_2         0
lambda_9_6_0         0
lambda_9_6_1         1
lambda_9_6_2         0
lambda_9_7_0         0
lambda_9_7_1         1
lambda_9_7_2         0
lambda_9_8_0         0
lambda_9_8_1         0
lambda_9_8_2         0
lambda_9_9_0         0
lambda_9_9_1         0
lambda_9_9_2         0
lambda_9_10_0        0
lambda_9_10_1        0
lambda_9_10_2        0
lambda_10_0_0        0
lambda_10_0_1        1
lambda_10_0_2        0
lambda_10_1_0        0
lambda_10_1_1        0
lambda_10_1_2        0
lambda_10_2_0        0
lambda_10_2_1        1
lambda_10_2_2        0
lambda_10_3_0        0
lambda_10_3_1        0
lambda_10_3_2        0
lambda_10_4_0        0
lambda_10_4_1        0
lambda_10_4_2        0
lambda_10_5_0        0
lambda_10_5_1        1
lambda_10_5_2        0
lambda_10_6_0        0
lambda_10_6_1        1
lambda_10_6_2        0
lambda_10_7_0        0
lambda_10_7_1        1
lambda_10_7_2        0
lambda_10_8_0        0
lambda_10_8_1        1
lambda_10_8_2        0
lambda_10_9_0        0
lambda_10_9_1        1
lambda_10_9_2        0
lambda_10_10_0       0
lambda_10_10_1       0
lambda_10_10_2       0
C107052              1
C107054              0
C107057              1
C107061              1
C107066              1
C107072              1
C107079              1
C107087              1
C107096              1
C107106              1
C107117              1
